(set-logic QF_S)
(declare-fun var0 () String)
(declare-fun var1 () Int)
(declare-fun var2 () Bool)
(declare-fun var3 () String)
(declare-fun var4 () Int)
(declare-fun var5 () Bool)
(declare-fun var6 () String)
(declare-fun var7 () Int)
(declare-fun var8 () Bool)
(assert (> (str.len var3) (str.indexof var6 var6 var1)))
(assert (str.prefixof (str.replace (str.at var3 var7) (str.at var0 var1) (str.replace var6 var0 var0)) (str.substr var3 var1 var4)))
(assert (<= (str.indexof "vFHTidg:mQ" var6 var1) (str.len var6)))
(assert (str.contains (str.substr (str.replace var3 "+\\&:`#dL,G" var0) (str.len "KXi@Ma,{u%") (str.indexof "12X=,rep%T" var6 var4)) (str.at (str.at var0 var4) (str.indexof var3 var6 6))))
(check-sat)